2
51
0 3 4 6 7 8 5 13 15 14 17 16 24 23 26 35 34 43 44 52 33 42 32 62 71 61 60 69 79 78 89 98 88 87 86 68 67 76 84 93 92 74 72 58 57 46 21 12 11 2 1
49
0 10 22 25 20 19 30 31 41 53 80 70 51 50 59 49 48 40 29 28 39 38 47 56 55 81 90 91 82 83 94 95 97 96 85 75 77 66 65 73 64 63 54 45 37 36 27 18 9
